% File represents an instance of a Composite Structure problem to be solved by a CP framework
% Created on 2025-03-26 10:41:20.025
T = 58;
n = 9;
m = 12;
edges = [(2, 1),
(4, 5),
(7, 8),
(2, 3),
(5, 6),
(8, 9),
(4, 1),
(7, 4),
(2, 5),
(5, 8),
(6, 3),
(6, 9)];
counts = [|18, 8, 18, 6,
|18, 14, 18, 6,
|18, 10, 18, 4,
|18, 12, 18, 8,
|18, 12, 18, 6,
|18, 10, 18, 6,
|18, 12, 18, 10,
|18, 10, 18, 6,
|18, 8, 18, 6|];
